r = [
0,182,153,49,135,193,394,293,31,182,279,21,293,300,77,87,279,266,349,9,305,131,130,352,257,51,0
];
p = [
0,11,26,24,23,27,14,23,1,30,11,9,18,5,18,23,6,15,8,30,21,25,15,9,21,30,0
];
e = [
0,15,20,18,4,20,1,14,20,19,12,12,17,12,12,3,16,8,16,12,7,5,9,6,17,11,0
];
d = [
0,193,179,73,193,220,408,382,32,276,505,30,486,305,312,110,487,335,357,93,372,156,296,448,278,81,515
];
d_bar = [
0,203,202,95,214,244,421,403,33,303,515,38,502,310,328,131,492,349,364,120,391,179,310,456,297,108,515
];
w = [
0,1.5,0.869565217,0.818181818,0.19047619,0.833333333,0.076923077,0.666666667,20,0.703703704,1.2,1.5,1.0625,2.4,0.75,0.142857143,3.2,0.571428571,2.285714286,0.444444444,0.368421053,0.217391304,0.642857143,0.75,0.894736842,0.407407407,0
];
